(set-info :smt-lib-version 2.6)
(set-logic QF_NIA)
(set-info :source |
Generated by: Cristina Borralleras, Daniel Larraz, Albert Oliveras, Enric Rodriguez-Carbonell, Albert Rubio
Generated on: 2017-04-27
Generator: VeryMax
Application: Termination proving
Target solver: barcelogic
|)
(set-info :license "https://creativecommons.org/licenses/by/4.0/")
(set-info :category "industrial")
(set-info :status unsat)
(declare-fun Nl5WItemsNum^01 () Int)
(declare-fun Nl6WItemsNum^01 () Int)
(declare-fun lam0n0 () Int)
(declare-fun lam0n2 () Int)
(declare-fun Nl5CT1 () Int)
(declare-fun lam0n1 () Int)
(declare-fun lam1n0 () Int)
(declare-fun lam1n2 () Int)
(declare-fun Nl6CT1 () Int)
(declare-fun lam1n1 () Int)
(declare-fun lam2n0 () Int)
(declare-fun lam2n1 () Int)
(declare-fun lam2n2 () Int)
(declare-fun lam3n0 () Int)
(declare-fun lam3n1 () Int)
(declare-fun lam3n2 () Int)
(declare-fun lam4n0 () Int)
(declare-fun lam4n1 () Int)
(declare-fun lam4n2 () Int)
(declare-fun lam5n0 () Int)
(declare-fun lam5n1 () Int)
(declare-fun lam5n2 () Int)
(declare-fun lam6n0 () Int)
(declare-fun lam6n1 () Int)
(declare-fun lam7n0 () Int)
(declare-fun lam7n1 () Int)
(declare-fun lam8n0 () Int)
(declare-fun lam8n1 () Int)
(declare-fun lam9n0 () Int)
(declare-fun lam9n1 () Int)
(declare-fun lam10n0 () Int)
(declare-fun lam10n1 () Int)
(declare-fun lam11n0 () Int)
(declare-fun lam11n1 () Int)
(declare-fun lam12n0 () Int)
(declare-fun WItemsNum^0 () Int)
(declare-fun undef33 () Int)
(declare-fun lam17n0 () Int)
(declare-fun lam17n1 () Int)
(declare-fun lam17n2 () Int)
(declare-fun RFN1_CT () Int)
(declare-fun RFN1_WItemsNum^0 () Int)
(declare-fun lam21n0 () Int)
(declare-fun lam21n1 () Int)
(declare-fun lam21n2 () Int)
(declare-fun lam25n0 () Int)
(declare-fun lam25n1 () Int)
(declare-fun lam30n0 () Int)
(declare-fun lam30n1 () Int)
(declare-fun lam15n0 () Int)
(declare-fun lam15n1 () Int)
(declare-fun lam15n2 () Int)
(declare-fun lam16n0 () Int)
(declare-fun lam16n1 () Int)
(declare-fun lam16n2 () Int)
(declare-fun lam19n0 () Int)
(declare-fun lam19n1 () Int)
(declare-fun lam19n2 () Int)
(declare-fun lam20n0 () Int)
(declare-fun lam20n1 () Int)
(declare-fun lam20n2 () Int)
(declare-fun lam23n0 () Int)
(declare-fun lam23n1 () Int)
(declare-fun lam24n0 () Int)
(declare-fun lam24n1 () Int)
(declare-fun lam28n0 () Int)
(declare-fun lam28n1 () Int)
(declare-fun lam29n0 () Int)
(declare-fun lam29n1 () Int)
(declare-fun lam13n0 () Int)
(declare-fun lam13n2 () Int)
(declare-fun lam13n1 () Int)
(declare-fun lam14n0 () Int)
(declare-fun lam14n1 () Int)
(declare-fun lam14n2 () Int)
(declare-fun lam18n0 () Int)
(declare-fun lam18n1 () Int)
(declare-fun lam18n2 () Int)
(declare-fun lam22n0 () Int)
(declare-fun lam22n1 () Int)
(declare-fun lam26n0 () Int)
(declare-fun lam26n1 () Int)
(declare-fun lam27n0 () Int)
(declare-fun lam27n1 () Int)
(assert ( and ( <= ( - 1 ) Nl5WItemsNum^01 ) ( <= Nl5WItemsNum^01 1 ) ( <= ( - 1 ) Nl6WItemsNum^01 ) ( <= Nl6WItemsNum^01 1 ) ))
(assert ( or ( and ( >= lam0n0 0 ) ( >= lam0n2 0 ) ( > ( + ( * 6 lam0n0 ) ( * Nl5CT1 lam0n2 ) ( - 1 ) ) 0 ) ( = ( + ( * ( - 1 ) lam0n0 ) ( * Nl5WItemsNum^01 lam0n2 ) ) 0 ) ( = ( * 1 lam0n1 ) 0 ) ) ( and ( >= lam1n0 0 ) ( >= lam1n2 0 ) ( > ( + ( * 6 lam1n0 ) ( * Nl5CT1 lam1n2 ) ( - 1 Nl6CT1 ) ) 0 ) ( = ( + ( * ( - 1 ) lam1n0 ) ( * Nl5WItemsNum^01 lam1n2 ) ( - ( + 0 Nl6WItemsNum^01 ) ) ) 0 ) ( = ( * 1 lam1n1 ) 0 ) ) ))
(assert ( or ( and ( >= lam2n0 0 ) ( >= lam2n1 0 ) ( >= lam2n2 0 ) ( > ( + ( * 6 lam2n0 ) ( * 1 lam2n1 ) ( * Nl5CT1 lam2n2 ) ( - 1 ) ) 0 ) ( = ( + ( * ( - 1 ) lam2n0 ) ( * Nl5WItemsNum^01 lam2n2 ) ) 0 ) ( = ( * ( - 1 ) lam2n1 ) 0 ) ) ( and ( >= lam3n0 0 ) ( >= lam3n1 0 ) ( >= lam3n2 0 ) ( > ( + ( * 6 lam3n0 ) ( * 1 lam3n1 ) ( * Nl5CT1 lam3n2 ) ( - 1 ( + Nl5CT1 ( * Nl5WItemsNum^01 1 ) ) ) ) 0 ) ( = ( + ( * ( - 1 ) lam3n0 ) ( * Nl5WItemsNum^01 lam3n2 ) ( - ( + 0 ( * Nl5WItemsNum^01 1 ) ) ) ) 0 ) ( = ( * ( - 1 ) lam3n1 ) 0 ) ) ))
(assert ( or ( and ( >= lam4n0 0 ) ( >= lam4n1 0 ) ( >= lam4n2 0 ) ( > ( + ( * 6 lam4n0 ) ( * 1 lam4n1 ) ( * Nl5CT1 lam4n2 ) ( - 1 ) ) 0 ) ( = ( + ( * ( - 1 ) lam4n0 ) ( * Nl5WItemsNum^01 lam4n2 ) ) 0 ) ( = ( * 1 lam4n1 ) 0 ) ) ( and ( >= lam5n0 0 ) ( >= lam5n1 0 ) ( >= lam5n2 0 ) ( > ( + ( * 6 lam5n0 ) ( * 1 lam5n1 ) ( * Nl5CT1 lam5n2 ) ( - 1 ( + Nl5CT1 ( * Nl5WItemsNum^01 1 ) ) ) ) 0 ) ( = ( + ( * ( - 1 ) lam5n0 ) ( * Nl5WItemsNum^01 lam5n2 ) ( - ( + 0 ( * Nl5WItemsNum^01 1 ) ) ) ) 0 ) ( = ( * 1 lam5n1 ) 0 ) ) ))
(assert ( or ( and ( >= lam6n0 0 ) ( >= lam6n1 0 ) ( > ( + ( * ( - 5 ) lam6n0 ) ( * Nl5CT1 lam6n1 ) ( - 1 ) ) 0 ) ( = ( + ( * 1 lam6n0 ) ( * Nl5WItemsNum^01 lam6n1 ) ) 0 ) ) ( and ( >= lam7n0 0 ) ( >= lam7n1 0 ) ( > ( + ( * ( - 5 ) lam7n0 ) ( * Nl5CT1 lam7n1 ) ( - 1 ( + Nl5CT1 ( * Nl5WItemsNum^01 1 ) ) ) ) 0 ) ( = ( + ( * 1 lam7n0 ) ( * Nl5WItemsNum^01 lam7n1 ) ( - ( + 0 ( * Nl5WItemsNum^01 1 ) ) ) ) 0 ) ) ))
(assert ( or ( and ( >= lam8n0 0 ) ( >= lam8n1 0 ) ( > ( + ( * ( - 2 ) lam8n0 ) ( * Nl6CT1 lam8n1 ) ( - 1 ) ) 0 ) ( = ( + ( * 1 lam8n0 ) ( * Nl6WItemsNum^01 lam8n1 ) ) 0 ) ) ( and ( >= lam9n0 0 ) ( >= lam9n1 0 ) ( > ( + ( * ( - 2 ) lam9n0 ) ( * Nl6CT1 lam9n1 ) ( - 1 Nl5CT1 ) ) 0 ) ( = ( + ( * 1 lam9n0 ) ( * Nl6WItemsNum^01 lam9n1 ) ( - ( + 0 Nl5WItemsNum^01 ) ) ) 0 ) ) ))
(assert ( or ( and ( >= lam10n0 0 ) ( >= lam10n1 0 ) ( > ( + ( * 3 lam10n0 ) ( * Nl6CT1 lam10n1 ) ( - 1 ) ) 0 ) ( = ( + ( * ( - 1 ) lam10n0 ) ( * Nl6WItemsNum^01 lam10n1 ) ) 0 ) ) ( and ( >= lam11n0 0 ) ( >= lam11n1 0 ) ( > ( + ( * 3 lam11n0 ) ( * Nl6CT1 lam11n1 ) ( - 1 ( + Nl6CT1 ( * Nl6WItemsNum^01 ( - 1 ) ) ) ) ) 0 ) ( = ( + ( * ( - 1 ) lam11n0 ) ( * Nl6WItemsNum^01 lam11n1 ) ( - ( + 0 ( * Nl6WItemsNum^01 1 ) ) ) ) 0 ) ) ))
(assert ( and ( = ( + WItemsNum^0 ( * ( - 1 ) undef33 ) ) 0 ) ( <= ( + Nl5CT1 ( * ( + 0 Nl5WItemsNum^01 ) WItemsNum^0 ) ) 0 ) ))
(assert ( or ( and ( and ( and ( >= lam17n0 0 ) ( >= lam17n1 0 ) ( >= lam17n2 0 ) ( > ( + ( * 6 lam17n0 ) ( * 1 lam17n1 ) ( * Nl5CT1 lam17n2 ) ( - 1 ( - ( + RFN1_CT ( * RFN1_WItemsNum^0 1 ) ) RFN1_CT ) ) ) 0 ) ( = ( + ( * ( - 1 ) lam17n0 ) ( * Nl5WItemsNum^01 lam17n2 ) ( - ( - ( + 0 ( * RFN1_WItemsNum^0 1 ) ) RFN1_WItemsNum^0 ) ) ) 0 ) ( = ( * ( - 1 ) lam17n1 ) 0 ) ) ( and ( >= lam21n0 0 ) ( >= lam21n1 0 ) ( >= lam21n2 0 ) ( > ( + ( * 6 lam21n0 ) ( * 1 lam21n1 ) ( * Nl5CT1 lam21n2 ) ( - 1 ( - ( + RFN1_CT ( * RFN1_WItemsNum^0 1 ) ) RFN1_CT ) ) ) 0 ) ( = ( + ( * ( - 1 ) lam21n0 ) ( * Nl5WItemsNum^01 lam21n2 ) ( - ( - ( + 0 ( * RFN1_WItemsNum^0 1 ) ) RFN1_WItemsNum^0 ) ) ) 0 ) ( = ( * 1 lam21n1 ) 0 ) ) ( and ( >= lam25n0 0 ) ( >= lam25n1 0 ) ( > ( + ( * ( - 5 ) lam25n0 ) ( * Nl5CT1 lam25n1 ) ( - 1 ( - ( + RFN1_CT ( * RFN1_WItemsNum^0 1 ) ) RFN1_CT ) ) ) 0 ) ( = ( + ( * 1 lam25n0 ) ( * Nl5WItemsNum^01 lam25n1 ) ( - ( - ( + 0 ( * RFN1_WItemsNum^0 1 ) ) RFN1_WItemsNum^0 ) ) ) 0 ) ) ( and ( >= lam30n0 0 ) ( >= lam30n1 0 ) ( > ( + ( * 3 lam30n0 ) ( * Nl6CT1 lam30n1 ) ( - 1 ( - ( + RFN1_CT ( * RFN1_WItemsNum^0 ( - 1 ) ) ) RFN1_CT ) ) ) 0 ) ( = ( + ( * ( - 1 ) lam30n0 ) ( * Nl6WItemsNum^01 lam30n1 ) ( - ( - ( + 0 ( * RFN1_WItemsNum^0 1 ) ) RFN1_WItemsNum^0 ) ) ) 0 ) ) ) ( or ( and ( and ( >= lam15n0 0 ) ( >= lam15n1 0 ) ( >= lam15n2 0 ) ( > ( + ( * 6 lam15n0 ) ( * 1 lam15n1 ) ( * Nl5CT1 lam15n2 ) ( - 1 ( - RFN1_CT ) ) ) 0 ) ( = ( + ( * ( - 1 ) lam15n0 ) ( * Nl5WItemsNum^01 lam15n2 ) ( - ( - RFN1_WItemsNum^0 ) ) ) 0 ) ( = ( * ( - 1 ) lam15n1 ) 0 ) ) ( and ( >= lam16n0 0 ) ( >= lam16n1 0 ) ( >= lam16n2 0 ) ( > ( + ( * 6 lam16n0 ) ( * 1 lam16n1 ) ( * Nl5CT1 lam16n2 ) ( - 1 ( + ( - ( + RFN1_CT ( * RFN1_WItemsNum^0 1 ) ) RFN1_CT ) 1 ) ) ) 0 ) ( = ( + ( * ( - 1 ) lam16n0 ) ( * Nl5WItemsNum^01 lam16n2 ) ( - ( - ( + 0 ( * RFN1_WItemsNum^0 1 ) ) RFN1_WItemsNum^0 ) ) ) 0 ) ( = ( * ( - 1 ) lam16n1 ) 0 ) ) ) ( and ( and ( >= lam19n0 0 ) ( >= lam19n1 0 ) ( >= lam19n2 0 ) ( > ( + ( * 6 lam19n0 ) ( * 1 lam19n1 ) ( * Nl5CT1 lam19n2 ) ( - 1 ( - RFN1_CT ) ) ) 0 ) ( = ( + ( * ( - 1 ) lam19n0 ) ( * Nl5WItemsNum^01 lam19n2 ) ( - ( - RFN1_WItemsNum^0 ) ) ) 0 ) ( = ( * 1 lam19n1 ) 0 ) ) ( and ( >= lam20n0 0 ) ( >= lam20n1 0 ) ( >= lam20n2 0 ) ( > ( + ( * 6 lam20n0 ) ( * 1 lam20n1 ) ( * Nl5CT1 lam20n2 ) ( - 1 ( + ( - ( + RFN1_CT ( * RFN1_WItemsNum^0 1 ) ) RFN1_CT ) 1 ) ) ) 0 ) ( = ( + ( * ( - 1 ) lam20n0 ) ( * Nl5WItemsNum^01 lam20n2 ) ( - ( - ( + 0 ( * RFN1_WItemsNum^0 1 ) ) RFN1_WItemsNum^0 ) ) ) 0 ) ( = ( * 1 lam20n1 ) 0 ) ) ) ( and ( and ( >= lam23n0 0 ) ( >= lam23n1 0 ) ( > ( + ( * ( - 5 ) lam23n0 ) ( * Nl5CT1 lam23n1 ) ( - 1 ( - RFN1_CT ) ) ) 0 ) ( = ( + ( * 1 lam23n0 ) ( * Nl5WItemsNum^01 lam23n1 ) ( - ( - RFN1_WItemsNum^0 ) ) ) 0 ) ) ( and ( >= lam24n0 0 ) ( >= lam24n1 0 ) ( > ( + ( * ( - 5 ) lam24n0 ) ( * Nl5CT1 lam24n1 ) ( - 1 ( + ( - ( + RFN1_CT ( * RFN1_WItemsNum^0 1 ) ) RFN1_CT ) 1 ) ) ) 0 ) ( = ( + ( * 1 lam24n0 ) ( * Nl5WItemsNum^01 lam24n1 ) ( - ( - ( + 0 ( * RFN1_WItemsNum^0 1 ) ) RFN1_WItemsNum^0 ) ) ) 0 ) ) ) ( and ( and ( >= lam28n0 0 ) ( >= lam28n1 0 ) ( > ( + ( * 3 lam28n0 ) ( * Nl6CT1 lam28n1 ) ( - 1 ( - RFN1_CT ) ) ) 0 ) ( = ( + ( * ( - 1 ) lam28n0 ) ( * Nl6WItemsNum^01 lam28n1 ) ( - ( - RFN1_WItemsNum^0 ) ) ) 0 ) ) ( and ( >= lam29n0 0 ) ( >= lam29n1 0 ) ( > ( + ( * 3 lam29n0 ) ( * Nl6CT1 lam29n1 ) ( - 1 ( + ( - ( + RFN1_CT ( * RFN1_WItemsNum^0 ( - 1 ) ) ) RFN1_CT ) 1 ) ) ) 0 ) ( = ( + ( * ( - 1 ) lam29n0 ) ( * Nl6WItemsNum^01 lam29n1 ) ( - ( - ( + 0 ( * RFN1_WItemsNum^0 1 ) ) RFN1_WItemsNum^0 ) ) ) 0 ) ) ) ) ) ( or ( and ( >= lam13n0 0 ) ( >= lam13n2 0 ) ( > ( + ( * 6 lam13n0 ) ( * Nl5CT1 lam13n2 ) ( - 1 ) ) 0 ) ( = ( + ( * ( - 1 ) lam13n0 ) ( * Nl5WItemsNum^01 lam13n2 ) ) 0 ) ( = ( * 1 lam13n1 ) 0 ) ) ( and ( >= lam14n0 0 ) ( >= lam14n1 0 ) ( >= lam14n2 0 ) ( > ( + ( * 6 lam14n0 ) ( * 1 lam14n1 ) ( * Nl5CT1 lam14n2 ) ( - 1 ) ) 0 ) ( = ( + ( * ( - 1 ) lam14n0 ) ( * Nl5WItemsNum^01 lam14n2 ) ) 0 ) ( = ( * ( - 1 ) lam14n1 ) 0 ) ) ( and ( >= lam18n0 0 ) ( >= lam18n1 0 ) ( >= lam18n2 0 ) ( > ( + ( * 6 lam18n0 ) ( * 1 lam18n1 ) ( * Nl5CT1 lam18n2 ) ( - 1 ) ) 0 ) ( = ( + ( * ( - 1 ) lam18n0 ) ( * Nl5WItemsNum^01 lam18n2 ) ) 0 ) ( = ( * 1 lam18n1 ) 0 ) ) ( and ( >= lam22n0 0 ) ( >= lam22n1 0 ) ( > ( + ( * ( - 5 ) lam22n0 ) ( * Nl5CT1 lam22n1 ) ( - 1 ) ) 0 ) ( = ( + ( * 1 lam22n0 ) ( * Nl5WItemsNum^01 lam22n1 ) ) 0 ) ) ( and ( >= lam26n0 0 ) ( >= lam26n1 0 ) ( > ( + ( * ( - 2 ) lam26n0 ) ( * Nl6CT1 lam26n1 ) ( - 1 ) ) 0 ) ( = ( + ( * 1 lam26n0 ) ( * Nl6WItemsNum^01 lam26n1 ) ) 0 ) ) ( and ( >= lam27n0 0 ) ( >= lam27n1 0 ) ( > ( + ( * 3 lam27n0 ) ( * Nl6CT1 lam27n1 ) ( - 1 ) ) 0 ) ( = ( + ( * ( - 1 ) lam27n0 ) ( * Nl6WItemsNum^01 lam27n1 ) ) 0 ) ) ) ))
(check-sat)
(exit)
